StringID   Type       x          y          demand     ReadyTime  DueDate    ServiceTime
D0         d              97.400    20.011      0.000      0.000     23.983      0.000
S0         f              97.400    20.011      0.000      0.000     23.983      0.000
S1         f              60.720    25.100      0.000      0.000     23.983      0.000
S2         f              57.660     9.960      0.000      0.000     23.983      0.000
C0         c              67.764    48.954      0.091     11.855     12.436      0.017
C1         c              16.575    88.284      0.028     14.111     14.600      0.050
C2         c              49.905    54.359      0.099     10.316     10.824      0.167
C3         c              35.036    49.972      0.098     14.309     14.825      0.067
C4         c               4.548    76.256      0.063     13.626     14.113      0.150

Q Vehicle fuel tank capacity /133.4100/
C Vehicle load capacity /1.1600/
r fuel consumption rate /0.4807/
g inverse refueling rate /0.0069/
v average Velocity /39.9000/
gv charging speed /144.8300/

--------------------
instance_id /418/
number of clusters /5/
working_startTime (hour) /8.00/
working_endTime (hour) /21.52/
instance_endTime (hour) /23.98/
service_time_type /random/
demand_type /random/
instance_type /RC/
instance x range /[0.0, 100.0]/
instance y range /[0.0, 100.0]/
cs_time_to_depot (hour)/[0.928103819905531,1.0273519549044452]/
